355 618
255 765
170 591
85 493
44 846
32 64
25 78
3 65
8 50
2 25
10 1
6 1
2 1
9 1
15 6
8 3
5 19
1 1
1 3
1 1
2 1
2 3
8 1
4 19
12 2
11 2
1 2
10 3
4 1
2 1
5 1
6 1
5 1
10 14
4 6
14 6
2 3
29 10
1 1
1 9
1 1
1 1
1 4
2 1
20 10
27 23
11 32
1 40
1 1
1 11
3 5
4 23
1 20
3 3
2 4
1 4
2 4
1 5
10 27
1 21
1 2
1 4
1 1
1 1
7 16
5 11
1 2
4 4
2 1
1 3
2 2
4 1
1 2
1 1
6 10
3 16
1 1
4 1
1 1
2 6
1 3
3 4
2 2
1 2
1 1
4 2
4 1
12 27
10 9
1 14
1 2
1 1
2 2
1 1
3 7
5 7
2 4
2 5
2 1
2 1
2 3
1 2
1 1
1 2
1 1
1 1
1 1
1 1
1 1
1 1
1 1
2 2
2 1
1 1
4 1
8 7
3 3
6 1
3 1
2 1
1 2
1 1
1 1
2 2
1 2
4 2
15 20
21 23
1 57
2 26
2 5
2 8
1 8
1 29
22 1
1 46
2 41
2 3
45 14
13 67
1 15
2 12
5 5
3 2
1 4
1 4
7 2
4 5
6 6
2 1
1 1
11 11
6 64
1 29
7 12
4 14
4 31
1 5
3 17
3 17
1 7
2 3
1 1
2 2
1 1
1 1
1 1
8 6
21 149
37 78
20 95
57 31
43 27
6 2
8 12
5 20
3 26
3 6
8 1
1 1
5 1
52 46
10 56
14 9
1 48
1 8
1 3
1 48
2 3
7 1
5 1
1 1
1 1
11 1
1 1
1 1
6 1
16 3
3 10
4 2
2 1
1 1
1 2
1 1
1 1
1 1
6 1
2 1
1 2
1 2
1 2
4 10
1 10
23 25
24 50
10 1
12 1
17 1
1 1
28 1
7 1
46 1
2 50
76 47
1 3
1 7
1 3
92 4
22 1
20 1
76 1
10 1
2 1
53 144
28 87
44 154
5 268
2 62
3 7
2 21
1 9
1 3
5 12
3 71
5 22
1 23
1 1
1 1
1 1
2 2
2 13
4 3
3 10
1 5
1 3
1 5
1 1
3 14
1 13
2 2
2 16
2 2
1 1
1 1
4 4
3 7
2 2
3 4
2 1
1 1
3 1
1 3
6 2
1 1
1 2
3 1
1 197
9 179
6 19
1 11
9 11
7 9
2 8
1 3
50 61
2 127
1 73
1 173
1 22
1 3
1 103
1 44
2 70
2 145
3 172
1 11
1 42
1 1
41 207
90 352
2 10
2 10
2 1
56 1
20 4
7 4
2 5
4 1
1 1
4 1
8 1
2 1
1 1
4 2
30 2
6 1
2 1
7 2
1 1
1 2
1 1
2 3
35 1
22 1
9 1
2 1
3 1
1 2
72 6
8 3
9 1
3 3
1 1
8 3
5 2
1 1
4 1
2 1
3 1
4 1
68 2
21 4
2 3
2 1
2 1
24 2
80 8
20 131
23 18
29 24
22 9
5 1
15 4
24 4
6 7
3 1
1 1
1 3
1 1
1 1
1 1
1 1
1 2
1 2
2 3
1 1
1 2
1 1
4 5
1 2
1 2
1 2
1 3
1 2
2 1
9 3
22 1
2 1
3 1
4 2
12 1
10 2
2 2
13 1
1 1
13 1
1 1
63 4
7 6
22 11
1 1
1 2
1 10
1 2
1 4
1 4
10 8
18 6
3 1
18 1
2 1
6 6
24 1
11 1
1 1
83 15
2 20
4 1
6 1
10 5
1 1
11 1
67 279
32 94
58 300
33 212
17 106
4 74
9 14
5 154
2 192
1 12
1 73
2 2
1 2
1 1
1 1
1 8
1 18
1 16
1 16
1 4
1 1
1 2
1 3
1 2
2 11
1 21
1 1
1 12
2 5
1 9
1 9
2 9
1 6
2 11
1 1
1 2
1 1
2 3
1 11
1 2
1 2
7 28
1 122
1 90
1 10
1 6
1 1
1 28
1 100
1 7
1 36
1 23
5 120
3 95
12 38
3 134
3 79
3 113
1 56
1 45
1 6
2 14
1 32
1 51
1 13
1 1
1 6
1 3
1 3
1 8
1 2
1 2
2 4
1 4
1 5
1 1
2 28
1 14
1 9
1 13
4 23
3 14
1 14
1 20
1 1
2 20
2 3
1 3
1 1
2 5
1 4
1 20
1 3
1 3
1 2
1 1
1 4
1 4
2 3
2 1
7 22
1 6
4 2
1 5
1 1
1 4
2 6
2 1
1 6
3 2
3 1
4 1
2 1
2 1
3 1
2 3
2 1
5 1
21 101
1 54
1 16
14 62
3 7
1 1
4 1
2 1
2 1
4 1
13 8
9 8
3 45
9 10
8 111
1 3
1 3
7 1
1 2
8 2
2 1
5 33
3 7
1 39
1 9
1 6
1 15
1 1
1 13
1 4
2 30
1 1
2 25
1 10
1 8
1 8
1 20
1 4
1 2
1 3
1 9
1 18
8 53
2 52
6 1
2 1
10 1
6 63
4 52
6 17
2 10
1 2
4 2
2 2
1 5
6 2
5 4
1 1
5 1
2 1
7 2
1 1
1 4
1 1
1 1
1 1
6 1
2 1
1 3
1 3
2 3
2 7
2 2
6 5
2 2
3 2
2 2
1 2
6 1
3 5
3 4
1 4
4 5
1 1
7 1
8 1
2 2
1 1
1 1
1 1
1 1
1 1
2 1
1 1
13 33
3 76
2 9
3 3
1 1
3 1
4 1
1 2
8 1
6 1
2 1
1 1
7 1
2 1
12 7
10 7
1 22
1 9
1 13
1 5
1 7
1 2
2 10
2 3
10 48
1 38
1 27
1 18
1 1
1 1
9 58
20 12
1 12
1 21
11 2
4 9
6 29
1 14
4 18
1 1
1 3
3 2
2 1
1 1
2 1
5 1
3 2
2 2
1 2
1 6
1 3
2 4
2 2
18 27
2 11
1 21
1 13
1 2
1 2
1 2
2 2
5 20
23 4
1 15
1 3
1 1
1 8
1 20
1 16
1 1
9 6
4 17
13 20
1 4
2 1
1 1
4 1
6 1
4 4
1 1
5 1
2 1
11 2
3 2
16 7
1 7
1 1
4 1
5 2
12 4
10 4
2 11
1 8
11 13
3 16
3 3
2 3
2 9
4 1
9 8
3 8
3 5
12 2
3 5
1 2
1 4
1 1
10 3
4 2
2 1
3 1
2 1
14 2
1 2
1 1
2 1
1 1
9 3
5 1
1 2
7 1
7 1
2 4
12 5
3 7
2 5
1 1
1 5
1 1
1 7
1 1
1 2
1 1
1 1
1 4
1 2
1 1
2 2
2 1
1 4
13 5
5 2
1 4
1 1
1 2
1 1
47 5
4 12
12 2
3 1
8 1
8 2
13 2
3 2
13 5
3 2
2 4
1 5
13 2
13 1
1 1
25 137
9 82
49 42
67 151
3 92
59 66
9 59
1 11
1 19
1 39
1 9
1 13
2 22
8 12
1 38
1 4
1 6
1 1
8 10
1 1
1 33
1 12
5 17
1 9
3 7
2 2
1 8
1 2
4 26
3 16
1 5
1 2
3 6
1 2
1 2
8 44
3 5
2 8
9 8
2 4
63 201
42 55
1 50
7 14
5 2
1 21
4 4
2 39
2 12
2 11
1 2
1 4
1 2
5 42
1 57
1 16
5 32
1 20
2 10
1 5
2 6
1 4
1 3
2 2
3 1
1 1
1 7
2 8
1 3
3 1
3 4
4 14
1 1
1 2
1 1
3 1
3 1
1 1
13 5
14 16
5 1
4 1
117 55
2 7
2 4
1 3
1 8
1 5
1 5
41 125
60 120
12 174
2 47
4 37
4 11
12 11
1 17
1 41
4 13
2 1
1 1
3 10
2 6
1 25
1 26
1 21
2 21
2 3
1 4
1 6
1 4
2 30
4 4
6 10
16 62
1 39
1 1
1 4
1 1
1 2
12 26
2 33
1 2
3 19
2 32
2 31
1 13
1 7
1 7
1 1
2 1
2 7
2 5
3 6
1 11
1 8
1 1
3 12
2 8
1 3
1 2
2 5
1 1
1 1
1 2
1 1
3 11
2 1
1 2
1 1
6 1
3 18
6 24
21 77
45 82
3 60
3 4
3 6
22 7
43 4
2 2
3 1
1 1
38 1
4 1
3 1
1 1
4 1
1 1
1 1
8 2
1 2
3 1
1 2
7 1
43 63
15 21
1 5
9 29
1 27
6 9
1 9
1 12
2 6
2 2
1 1
1 2
2 2
3 6
3 5
2 21
2 1
2 1
4 1
1 1
3 1
2 5
2 10
2 11
1 1
1 1
1 1
1 1
1 18
1 10
1 1
1 7
5 10
5 23
1 20
1 22
4 28
4 3
3 9
4 11
3 16
2 3
1 2
1 1
1 1
1 1
1 3
1 5
1 6
1 2
2 6
3 8
5 8
3 14
2 6
1 6
1 1
1 1
6 12
2 7
2 4
1 2
3 2
3 1
2 1
3 2
2 2
1 3
1 2
1 1
2 5
1 3
2 2
3 1
3 1
4 1
1 2
1 2
1 33
8 9
1 2
1 1
1 1
1 1
9 2
1 1
1 1
3 5
8 6
4 1
8 2
3 1
4 3
2 3
5 2
4 2
1 1
7 1
24 2
1 1
7 1
35 85
31 42
5 24
1 10
4 18
2 17
5 3
1 10
1 3
1 4
1 13
1 5
1 3
1 2
1 20
4 5
1 6
1 8
1 5
2 1
3 1
1 16
2 9
1 3
1 10
1 8
2 2
2 5
3 11
3 2
5 5
1 1
3 1
7 17
12 18
25 6
1 28
2 5
1 15
1 6
1 3
2 2
1 7
1 1
5 4
6 16
3 6
3 14
5 3
1 7
1 19
28 24
1 16
1 30
2 7
3 1
3 2
3 3
34 1
4 1
5 3
9 2
8 1
36 4
5 2
1 1
1 2
1 1
1 1
6 1
1 1
2 1
2 1
1 1
1 1
106 111
1 98
12 24
6 49
3 55
3 7
6 1
4 23
4 14
2 30
1 21
1 13
1 21
1 9
1 2
2 2
3 1
3 3
3 2
4 6
1 1
3 1
1 1
1 1
2 1
5 11
2 18
1 5
1 2
2 1
2 1
9 4
5 23
1 3
1 1
4 2
1 2
1 2
1 2
1 4
2 24
13 1
5 3
6 3
1 1
1 2
1 1
1 2
1 1
10 2
1 2
7 1
5 1
3 1
3 1
21 5
21 41
1 51
1 5
1 30
11 43
6 17
5 23
4 2
1 5
1 2
1 2
1 2
1 1
16 18
3 9
1 3
1 6
1 9
1 6
3 1
5 3
1 8
1 12
6 3
6 3
99 122
10 90
25 13
11 68
8 38
3 6
3 3
2 3
1 2
5 2
1 3
5 2
1 3
3 1
13 11
2 42
2 4
1 29
1 1
1 10
2 6
2 14
2 12
2 28
2 2
2 18
1 4
1 3
2 5
1 4
1 1
1 2
2 2
1 2
1 2
1 5
2 4
1 1
3 1
2 5
1 20
3 12
2 11
1 12
1 1
1 5
1 3
1 7
3 11
3 20
2 22
1 7
1 3
1 1
4 95
32 5
8 2
8 12
3 3
12 5
6 9
18 10
1 17
4 7
9 3
2 2
7 2
2 1
1 1
1 4
1 2
1 1
1 2
3 2
3 1
2 1
1 1
3 2
1 1
2 1
2 3
8 3
13 2
7 2
1 1
1 3
2 2
1 1
1 1
2 1
1 3
1 1
3 1
2 1
2 2
2 2
3 1
4 2
7 5
21 4
18 5
2 2
5 2
8 2
5 2
10 7
11 12
21 4
1 15
2 2
2 2
8 3
25 8
19 2
32 4
7 5
5 2
9 2
1 1
1 1
1 2
1 1
1 1
12 1
3 1
6 2
2 1
1 1
1 1
5 1
4 1
34 7
9 19
1 9
1 11
1 1
1 2
17 25
8 4
1 13
8 7
9 6
1 10
1 3
1 3
1 1
1 1
1 5
1 2
2 5
2 3
4 1
1 4
2 1
4 1
2 1
5 3
4 4
1 3
5 1
3 1
2 16
5 4
4 11
4 12
1 10
2 1
11 8
2 3
1 2
1 8
1 1
3 2
13 15
6 4
1 26
1 2
2 3
17 1
8 2
18 1
1 1
5 2
15 3
1 2
1 1
6 1
14 3
5 4
2 15
1 1
1 4
1 3
5 17
1 1
1 2
2 3
3 4
3 6
3 12
1 1
1 2
4 14
3 5
3 2
1 2
1 3
1 4
1 4
2 1
1 3
1 2
1 1
2 3
3 4
1 1
2 2
1 1
1 1
19 6
1 1
7 1
7 1
17 1
1 1
26 1
9 3
11 6
32 1
2 2
1 1
1 1
23 2
15 2
10 5
28 2
2 3
1 1
1 1
111 122
252 193
9 188
7 136
7 4
2 40
1 33
1 54
1 4
1 8
1 5
4 55
3 4
1 1
1 1
1 2
1 84
3 37
3 7
2 67
1 19
7 1
3 6
2 6
3 2
2 3
1 1
3 1
2 6
3 1
2 1
1 2
1 1
1 1
3 3
1 2
2 1
2 1
3 5
3 1
2 7
8 6
1 6
1 1
7 3
2 2
1 1
1 2
1 1
1 2
4 1
5 1
5 5
5 3
5 2
10 5
1 5
1 1
1 1
3 2
2 6
4 3
1 1
4 2
1 1
1 3
1 3
2 1
2 1
3 1
1 1
3 1
1 1
2 2
11 2
1 5
2 4
2 2
1 1
1 2
1 1
13 4
1 9
1 3
9 5
2 1
3 5
2 10
2 1
5 9
2 1
6 1
7 5
7 1
13 13
4 7
1 16
1 2
1 7
8 19
14 11
2 19
1 17
1 5
1 4
1 11
1 8
2 6
2 2
2 16
1 1
1 1
2 18
5 6
1 11
1 1
3 1
4 1
7 1
11 6
3 12
2 11
4 3
1 2
1 3
4 3
5 4
6 8
1 1
2 2
2 1
2 1
3 2
5 1
7 1
2 1
9 11
18 8
4 6
1 1
8 1
4 1
5 1
9 19
1 6
4 8
8 15
2 7
3 2
2 1
1 1
3 7
2 4
1 1
4 1
1 3
3 1
2 1
1 1
8 2
8 1
9 3
1 1
10 1
10 1
6 1
4 5
2 15
1 15
3 9
2 9
3 11
2 7
2 2
2 1
3 4
1 3
1 1
1 2
1 2
1 1
1 1
14 13
2 1
1 5
1 2
1 14
1 3
2 2
1 1
1 2
1 1
1 1
1 1
21 4
1 18
4 1
1 1
26 1
1 11
1 5
1 14
1 2
186 91
82 73
4 40
3 68
2 2
1 2
1 1
1 1
1 3
3 3
2 4
3 4
1 1
1 1
3 1
6 2
5 27
4 58
1 60
1 2
7 10
4 22
5 24
1 2
5 4
2 4
2 4
7 1
2 1
4 1
7 1
3 2
1 1
3 1
73 7
11 10
2 2
1 2
5 11
1 10
1 2
1 1
1 2
3 8
1 1
1 4
1 6
1 3
1 1
1 5
1 3
2 1
1 5
1 2
1 1
1 1
1 1
1 1
2 2
3 11
2 1
1 1
1 3
1 2
2 3
2 2
1 1
1 1
3 1
4 8
2 4
1 2
1 2
1 1
1 1
4 3
1 1
2 3
1 4
2 2
1 1
1 1
2 1
1 1
1 3
8 1
2 4
1 1
2 1
2 3
1 1
1 2
2 1
4 2
1 1
5 1
6 1
1 1
1 1
7 1
34 10
42 15
17 9
55 4
1 1
3 3
2 1
4 3
1 1
405 299
68 58
142 20
8 4
17 2
3 1
1 1
1 2
1 1
1 1
2 3
2 1
2 1
2 3
1 1
1 2
2 1
1 2
1 1
1 1
142 3
19 1
1 2
1 1
9 1
105 1
35 1
11 1
12 1
40 1
2 1
11 1
8 1
47 1
3 1
38 10
150 23
32 14
13 4
7 7
19 1
1 6
10 6
4 5
3 1
3 1
9 1
41 1
11 2
5 4
2 2
1 4
4 1
1 1
1 1
1 1
1 1
9 2
1 2
1 1
7 1
1 1
4 1
1 1
20 2
26 10
1 3
4 1
8 3
14 1
4 1
6 1
22 2
7 4
1 2
1 1
1 1
1 2
2 2
6 1
1 2
1 1
17 3
5 3
8 1
2 2
2 1
12 2
7 2
48 2
3 1
1 1
1 1
1 1
43 4
17 4
110 7
31 3
1 1
21 1
62 3
49 1
67 1
43 1
19 1
121 3
13 2
3 3
4 1
8 1
7 2
1 2
118 2
5 1
7 2
12 1
3 1
1 1
7 1
12 1
83 1
45 2
54 1
2 1
1 1
1 1
81 1
21 4
17 3
82 4
1 4
1 2
33 7
6 5
31 1
17 2
9 4
3 2
3 1
22 1
1 2
1 1
13 1
1 1
17 1
24 1
2 3
1 1
1 1
1 2
1 1
2 1
18 2
60 2
1 1
1 5
1 4
4 1
54 2
3 1
49 1
4 1
67 4
25 1
3 1
25 1
28 1
68 1
1 1
3 1
45 1
36 1
91 4
14 4
40 1
51 2
15 1
35 1
31 2
13 1
42 1
25 1
36 1
37 1
131 3
58 6
7 3
1 6
2 3
1 2
1 1
1 1
2 1
19 3
201 80
443 1
1 2
284 2
101 2
140 1
55 1
251 1
4 1
35 1
124 1
6 1
58 1
146 2
152 1
207 2
76 1
89 1
43 1
7 1
17 1
308 1
178 1
